% demand
num_movements = 33;
loading_factor = [950, 1550, 1900, 1500, 1100, 1600, 1650, 1650, 1950, 1900, 1850, 800, 1250, 850, 1350, 1500, 900, 1150, 1700, 950, 900, 950, 1300, 1100, 800, 850, 900, 1100, 1600, 1300, 1750, 1350, 1000];
pickup_time = [0, 0, 0, 0, 0, 1, 1, 1, 2, 2, 3, 4, 4, 4, 4, 4, 6, 6, 6, 6, 6, 6, 7, 7, 7, 7, 7, 7, 10, 10, 10, 10, 10];
delivery_time = [1, 1, 1, 1, 1, 2, 2, 2, 3, 4, 4, 5, 5, 5, 5, 5, 7, 7, 7, 10, 7, 7, 9, 9, 10, 9, 10, 10, 12, 12, 11, 11, 11];

% transporter definition
total_capacity = 7000;
num_decks = 3;
capacity = [3000, 1000, 3000];

% ways out of decks
num_ways_out = 1;
paths_out = array3d(decks, ways_out, decks, [
% ways out of deck d1
2, 3, 0, 

% ways out of deck d2
3, 0, 0, 

% ways out of deck d3
0, 0, 0,	

]);

